p cnf 7230 16
-4982 -4983 0
2040 4396 -4980 0
-2040 -4981 0
4980 4981 0
4978 4979 0
4354 -4979 0
-4354 -4978 0
4976 4977 0
4350 -4977 0
-4350 -4976 0
4974 4975 0
4348 -4975 0
-4348 -4974 0
-4396 -4981 0
-4372 4983 0
4372 -4983 0
